
===== New CPLEX run =====
Instance: /home/yorig/tuner/mpils-tests/instances/miplib/medium-1/mushroom-best.mps
Config: /scratch/yorig/mpils-results-grid-seconds-5/medium-1/24proc/seed-2/7_mushroom-best_seed-2_20260503_110448/expansion/config_param_CPXPARAM_Simplex_DGradient_2_iter_2.prm
========================

Selected objective sense:  MINIMIZE
Selected objective  name:  obj
Selected RHS        name:  rhs
Selected bound      name:  bnd
Version identifier: 22.1.2.0 | 2024-11-26 | 0edbb82fd
CPXPARAM_Simplex_DGradient                       2
CPXPARAM_Threads                                 8
CPXPARAM_Parallel                                1
CPXPARAM_MIP_Cuts_Cliques                        1
CPXPARAM_MIP_Cuts_Covers                         1
CPXPARAM_MIP_Strategy_VariableSelect             2
CPXPARAM_MIP_Cuts_FlowCovers                     1
CPXPARAM_MIP_Cuts_Implied                        2
CPXPARAM_MIP_Cuts_GUBCovers                      -1
CPXPARAM_MIP_Limits_GomoryCand                   10
CPXPARAM_MIP_Cuts_Gomory                         -1
CPXPARAM_MIP_Cuts_PathCut                        1
CPXPARAM_MIP_Cuts_MIRCut                         -1
CPXPARAM_MIP_Cuts_Disjunctive                    2
CPXPARAM_Emphasis_MIP                            3
CPXPARAM_MIP_Strategy_RINSHeur                   200
CPXPARAM_TimeLimit                               5
CPXPARAM_MIP_Limits_ProbeTime                    120
Found incumbent of value 8124.895732 after 0.00 sec. (1.54 ticks)
Tried aggregator 2 times.
MIP Presolve eliminated 88 rows and 0 columns.
MIP Presolve modified 8124 coefficients.
Aggregator did 4 substitutions.
Reduced MIP has 8488 rows, 8464 columns, and 180316 nonzeros.
Reduced MIP has 8237 binaries, 114 generals, 0 SOSs, and 0 indicators.
Presolve time = 0.05 sec. (69.18 ticks)
Probing time = 0.00 sec. (2.69 ticks)
Tried aggregator 2 times.
Detecting symmetries...
MIP Presolve modified 6649 coefficients.
Aggregator did 44 substitutions.
Reduced MIP has 8444 rows, 8420 columns, and 180228 nonzeros.
Reduced MIP has 8237 binaries, 183 generals, 0 SOSs, and 0 indicators.
Presolve time = 0.08 sec. (102.88 ticks)
Probing time = 0.00 sec. (2.82 ticks)
MIP emphasis: best bound.
MIP search method: dynamic search.
Parallel mode: deterministic, using up to 8 threads.
Root relaxation solution time = 0.15 sec. (206.49 ticks)

        Nodes                                         Cuts/
   Node  Left     Objective  IInf  Best Integer    Best Bound    ItCnt     Gap

*     0+    0                         8124.8957        0.0000           100.00%
*     0+    0                         3916.5463        0.0000           100.00%
*     0+    0                         3916.5456        0.0000           100.00%
*     0+    0                         3916.5450        0.0000           100.00%
*     0+    0                         3916.0000        0.0000           100.00%
      0     0        0.0000    26     3916.0000        0.0000      406  100.00%
*     0+    0                           38.1106        0.0000           100.00%
*     0+    0                            0.0711        0.0000            99.98%
*     0+    0                            0.0632        0.0000            99.98%
      0     0  -1.00000e+75     0        0.0632        0.0000      406   99.98%

Repeating presolve.
Tried aggregator 1 time.
MIP Presolve eliminated 98 rows and 8128 columns.
MIP Presolve modified 8124 coefficients.
Reduced MIP has 8346 rows, 292 columns, and 170180 nonzeros.
Reduced MIP has 111 binaries, 181 generals, 0 SOSs, and 0 indicators.
Presolve time = 0.04 sec. (61.97 ticks)
Probing time = 0.00 sec. (2.09 ticks)
Tried aggregator 1 time.
Detecting symmetries...
Reduced MIP has 8346 rows, 292 columns, and 170180 nonzeros.
Reduced MIP has 111 binaries, 181 generals, 0 SOSs, and 0 indicators.
Presolve time = 0.04 sec. (46.86 ticks)
Represolve time = 0.09 sec. (129.23 ticks)
Probing time = 0.00 sec. (2.09 ticks)
MIP emphasis: best bound.
MIP search method: dynamic search.
Parallel mode: deterministic, using up to 8 threads.
Root relaxation solution time = 0.13 sec. (160.03 ticks)

        Nodes                                         Cuts/
   Node  Left     Objective  IInf  Best Integer    Best Bound    ItCnt     Gap

*     0+    0                            0.0632        0.0000            99.98%
      0     0        0.0127    13        0.0632        0.0127      678   79.94%
      0     2        0.0127    13        0.0632        0.0127      678   79.94%
Elapsed time = 1.31 sec. (2190.55 ticks, tree = 0.15 MB, solutions = 7)
*     1+    1                            0.0553        0.0127            77.08%
*     1+    1                            0.0553        0.0127            77.08%
      1     3        0.0185    43        0.0553        0.0127      727   77.08%
      8     6        0.0264    29        0.0553        0.0174      852   68.48%
     27    13        0.0295    38        0.0553        0.0174      991   68.48%
     65     5        0.0190    64        0.0553        0.0185      922   66.61%
    124   102        0.0261    16        0.0553        0.0197     3693   64.35%
    193   151        0.0372    19        0.0553        0.0274     5065   50.51%
    258   191        0.0388    32        0.0553        0.0293     6052   47.04%
    344   256        0.0396    10        0.0553        0.0317     7703   42.74%
    428   339        0.0364     7        0.0553        0.0337     9633   39.17%
    820   745        0.0433    27        0.0553        0.0380    18274   31.39%
Elapsed time = 3.72 sec. (5854.68 ticks, tree = 39.20 MB, solutions = 9)
   1196  1056        0.0411    13        0.0553        0.0395    24965   28.55%

Clique cuts applied:  0
Cover cuts applied:  0
Implied bound cuts applied:  0
Flow cuts applied:  0
Flow path cuts applied:  0
Disjunctive cuts applied:  0
Cone linearizations applied:  0

Root node processing (before b&c):
  Real time             =    1.30 sec. (2182.80 ticks)
Parallel b&c, 8 threads:
  Real time             =    3.70 sec. (5533.69 ticks)
  Sync time (average)   =    0.55 sec.
  Wait time (average)   =    0.00 sec.
                          ------------
Total (root+branch&cut) =    5.01 sec. (7716.49 ticks)
Gap: 25.61%
Upper bound: 0.0553338
Lower bound: 0.0411617
End of CPLEX run. Time: 5.00834 seconds
